results/x-long/X-n106-k14.vrp_seed-13.out
26370	1049
