results/x-long/X-n106-k14.vrp_seed-13.vrp.sol
Route #1: 22 33
Route #2: 7 75 84 9 12 104 1
Route #3: 5 44 15 76 51 100 45 96
Route #4: 62 26 90 24 102 92 52
Route #5: 56 20 16 10 41 18 86
Route #6: 61 70 6 81 50 39 25
Route #7: 78 19 27 37 79 46 66 28
Route #8: 54 77 83 2 17 69 105 64 94 82
Route #9: 73 32 42 30 38 59 95 68
Route #10: 53 103 101 93 97 43 87 60
Route #11: 67 48 8 36 91 88 58 14
Route #12: 29 72 34 11 99 49 71
Route #13: 47 80 65 4 98 23 55 3 89 35
Route #14: 74 21 85 13 40 31 63 57
Cost 26370.000000